10J3M/DAT/10J3MULR-16.dat
10 3
31.7549 14.2657
46.2108 15.6757
20.8914 44.6472
15.0605 21.5853
32.4302 30.2794
37.4949 13.2349
26.4195 14.2416
12.2169 21.844
45.0466 11.32
46.1803 1.046
62.7133