10J3M/SOL/10J3MULR-16.sol
solution status: optimal solution found
objective value:                     104.568666666667
x#1#2                                               1 	(obj:0)
x#2#3                                               1 	(obj:0)
x#3#3                                               1 	(obj:0)
x#4#1                                               1 	(obj:0)
x#5#2                               0.947815891261507 	(obj:0)
x#5#3                              0.0521841087384925 	(obj:0)
x#6#1                                               1 	(obj:0)
x#7#1                                               1 	(obj:0)
x#8#1                               0.384570430100317 	(obj:0)
x#8#2                               0.615429569899683 	(obj:0)
x#9#1                                 0.4638642689831 	(obj:0)
x#9#2                                 0.5361357310169 	(obj:0)
x#10#2                               0.22533795615326 	(obj:0)
x#10#3                               0.77466204384674 	(obj:0)
z                                    104.568666666667 	(obj:1)
